presolving:
(round 1, fast)       3284 del vars, 6318 del conss, 0 add conss, 3170 chg bounds, 3000 chg sides, 0 chg coeffs, 0 upgd conss, 0 impls, 0 clqs
(round 2, fast)       3346 del vars, 6348 del conss, 0 add conss, 3170 chg bounds, 3000 chg sides, 0 chg coeffs, 0 upgd conss, 0 impls, 0 clqs
(round 3, fast)       3376 del vars, 6348 del conss, 0 add conss, 3602 chg bounds, 3000 chg sides, 0 chg coeffs, 0 upgd conss, 0 impls, 0 clqs
(round 4, fast)       3485 del vars, 6564 del conss, 0 add conss, 3602 chg bounds, 3000 chg sides, 0 chg coeffs, 0 upgd conss, 0 impls, 0 clqs
(round 5, fast)       3700 del vars, 6564 del conss, 0 add conss, 3602 chg bounds, 3000 chg sides, 0 chg coeffs, 0 upgd conss, 0 impls, 0 clqs
   (0.6s) running MILP presolver
   (0.6s) MILP presolver found nothing
(round 6, exhaustive) 3700 del vars, 6564 del conss, 0 add conss, 3602 chg bounds, 3000 chg sides, 0 chg coeffs, 3000 upgd conss, 0 impls, 0 clqs
   (0.8s) probing: 51/140 (36.4%) - 0 fixings, 0 aggregations, 0 implications, 0 bound changes
   (0.8s) probing aborted: 50/50 successive totally useless probings
   (1.2s) symmetry computation started: requiring (bin +, int -, cont +), (fixed: bin -, int +, cont -)
   (1.2s) no symmetry present
presolving (7 rounds: 7 fast, 2 medium, 2 exhaustive):
 13310 deleted vars, 6702 deleted constraints, 0 added constraints, 3602 tightened bounds, 0 added holes, 3000 changed sides, 0 changed coefficients
 0 implications, 0 cliques
presolved problem has 140 variables (140 bin, 0 int, 0 impl, 0 cont) and 3000 constraints
   3000 constraints of type <logicor>
Presolving Time: 1.46

 time | node  | left  |LP iter|LP it/n|mem/heur|mdpt |vars |cons |rows |cuts |sepa|confs|strbr|  dualbound   | primalbound  |  gap   | compl. 
t 1.6s|     1 |     0 |     0 |     - | trivial|   0 | 140 |3000 |   0 |   0 |  0 |   0 |   0 |-2.146063e+06 |-1.983490e+06 |   8.20%| unknown
p 1.7s|     1 |     0 |     0 |     - |   locks|   0 | 140 |3000 |3000 |   0 |  0 |   0 |   0 |-2.146063e+06 |-2.116233e+06 |   1.41%| unknown
  1.8s|     1 |     0 |   384 |     - |   155M |   0 | 140 |3000 |3000 |   0 |  0 |   0 |   0 |-2.139854e+06 |-2.116233e+06 |   1.12%| unknown
r 1.8s|     1 |     0 |   384 |     - |rounding|   0 | 140 |3000 |3000 |   0 |  0 |   0 |   0 |-2.139854e+06 |-2.116345e+06 |   1.11%| unknown
r 1.8s|     1 |     0 |   384 |     - |shifting|   0 | 140 |3000 |3000 |   0 |  0 |   0 |   0 |-2.139854e+06 |-2.116502e+06 |   1.10%| unknown
i 1.9s|     1 |     0 |   384 |     - |  oneopt|   0 | 140 |3000 |3000 |   0 |  0 |   0 |   0 |-2.139854e+06 |-2.135232e+06 |   0.22%| unknown
  2.0s|     1 |     0 |   428 |     - |   157M |   0 | 140 |3000 |3001 |   1 |  1 |   0 |   0 |-2.139831e+06 |-2.135232e+06 |   0.22%| unknown
  2.1s|     1 |     0 |   454 |     - |   158M |   0 | 140 |3000 |3002 |   2 |  2 |   0 |   0 |-2.139816e+06 |-2.135232e+06 |   0.21%| unknown
  2.2s|     1 |     0 |   502 |     - |   160M |   0 | 140 |3000 |3003 |   3 |  3 |   0 |   0 |-2.139787e+06 |-2.135232e+06 |   0.21%| unknown
  2.3s|     1 |     0 |   517 |     - |   160M |   0 | 140 |3000 |3004 |   4 |  4 |   0 |   0 |-2.139778e+06 |-2.135232e+06 |   0.21%| unknown
  2.4s|     1 |     0 |   549 |     - |   162M |   0 | 140 |3000 |3005 |   5 |  5 |   0 |   0 |-2.139772e+06 |-2.135232e+06 |   0.21%| unknown
  2.5s|     1 |     0 |   576 |     - |   163M |   0 | 140 |3000 |3006 |   6 |  6 |   0 |   0 |-2.139769e+06 |-2.135232e+06 |   0.21%| unknown
  2.6s|     1 |     0 |   630 |     - |   163M |   0 | 140 |3000 |3007 |   7 |  7 |   0 |   0 |-2.139763e+06 |-2.135232e+06 |   0.21%| unknown
  2.7s|     1 |     0 |   650 |     - |   165M |   0 | 140 |3000 |3008 |   8 |  8 |   0 |   0 |-2.139762e+06 |-2.135232e+06 |   0.21%| unknown
  2.9s|     1 |     0 |   689 |     - |   165M |   0 | 140 |3000 |3009 |   9 |  9 |   0 |   0 |-2.139758e+06 |-2.135232e+06 |   0.21%| unknown
 time | node  | left  |LP iter|LP it/n|mem/heur|mdpt |vars |cons |rows |cuts |sepa|confs|strbr|  dualbound   | primalbound  |  gap   | compl. 
  3.0s|     1 |     0 |   700 |     - |   167M |   0 | 140 |3000 |3010 |  10 | 10 |   0 |   0 |-2.139758e+06 |-2.135232e+06 |   0.21%| unknown
  3.0s|     1 |     0 |   734 |     - |   168M |   0 | 140 |3000 |3011 |  11 | 11 |   0 |   0 |-2.139756e+06 |-2.135232e+06 |   0.21%| unknown
  3.0s|     1 |     0 |   768 |     - |   168M |   0 | 140 |3000 |3012 |  12 | 12 |   0 |   0 |-2.139754e+06 |-2.135232e+06 |   0.21%| unknown
  3.0s|     1 |     0 |   787 |     - |   168M |   0 | 140 |3000 |3013 |  13 | 13 |   0 |   0 |-2.139753e+06 |-2.135232e+06 |   0.21%| unknown
  3.1s|     1 |     0 |   824 |     - |   169M |   0 | 140 |3000 |3014 |  14 | 14 |   0 |   0 |-2.139751e+06 |-2.135232e+06 |   0.21%| unknown
  3.1s|     1 |     0 |   848 |     - |   169M |   0 | 140 |3000 |3015 |  15 | 15 |   0 |   0 |-2.139750e+06 |-2.135232e+06 |   0.21%| unknown
  3.2s|     1 |     0 |   879 |     - |   169M |   0 | 140 |3000 |3016 |  16 | 16 |   0 |   0 |-2.139749e+06 |-2.135232e+06 |   0.21%| unknown
  3.2s|     1 |     0 |   904 |     - |   170M |   0 | 140 |3000 |3017 |  17 | 17 |   0 |   0 |-2.139749e+06 |-2.135232e+06 |   0.21%| unknown
  3.3s|     1 |     0 |   928 |     - |   170M |   0 | 140 |3000 |3018 |  18 | 18 |   0 |   0 |-2.139748e+06 |-2.135232e+06 |   0.21%| unknown
  3.3s|     1 |     0 |   968 |     - |   170M |   0 | 140 |3000 |3019 |  19 | 19 |   0 |   0 |-2.139748e+06 |-2.135232e+06 |   0.21%| unknown
  3.4s|     1 |     0 |   999 |     - |   170M |   0 | 140 |3000 |3020 |  20 | 20 |   0 |   0 |-2.139748e+06 |-2.135232e+06 |   0.21%| unknown
  3.4s|     1 |     0 |  1015 |     - |   170M |   0 | 140 |3000 |3021 |  21 | 21 |   0 |   0 |-2.139747e+06 |-2.135232e+06 |   0.21%| unknown
  3.5s|     1 |     0 |  1028 |     - |   171M |   0 | 140 |3000 |3022 |  22 | 22 |   0 |   0 |-2.139747e+06 |-2.135232e+06 |   0.21%| unknown
  3.5s|     1 |     0 |  1049 |     - |   171M |   0 | 140 |3000 |3021 |  23 | 23 |   0 |   0 |-2.139745e+06 |-2.135232e+06 |   0.21%| unknown
  3.5s|     1 |     0 |  1063 |     - |   171M |   0 | 140 |3000 |3022 |  24 | 24 |   0 |   0 |-2.139744e+06 |-2.135232e+06 |   0.21%| unknown
 time | node  | left  |LP iter|LP it/n|mem/heur|mdpt |vars |cons |rows |cuts |sepa|confs|strbr|  dualbound   | primalbound  |  gap   | compl. 
  3.6s|     1 |     0 |  1083 |     - |   171M |   0 | 140 |3000 |3023 |  25 | 25 |   0 |   0 |-2.139743e+06 |-2.135232e+06 |   0.21%| unknown
  3.6s|     1 |     0 |  1093 |     - |   171M |   0 | 140 |3000 |3024 |  26 | 26 |   0 |   0 |-2.139742e+06 |-2.135232e+06 |   0.21%| unknown
  3.6s|     1 |     0 |  1098 |     - |   171M |   0 | 140 |3000 |3025 |  27 | 27 |   0 |   0 |-2.139742e+06 |-2.135232e+06 |   0.21%| unknown
  3.7s|     1 |     0 |  1104 |     - |   171M |   0 | 140 |3000 |3026 |  28 | 28 |   0 |   0 |-2.139742e+06 |-2.135232e+06 |   0.21%| unknown
d 4.0s|     1 |     0 |  1815 |     - |farkasdi|   0 | 140 |3000 |3026 |   0 | 30 |   0 |   0 |-2.139742e+06 |-2.135364e+06 |   0.21%| unknown
d 4.0s|     1 |     0 |  1837 |     - |farkasdi|   0 | 140 |3000 |3026 |   0 | 30 |   0 |   0 |-2.139742e+06 |-2.137100e+06 |   0.12%| unknown
L12.3s|     1 |     0 |  1837 |     - |    rens|   0 | 140 |3000 |3026 |  28 | 30 |   0 |   0 |-2.139742e+06 |-2.137664e+06 |   0.10%| unknown
 12.4s|     1 |     0 |  1837 |     - |   171M |   0 | 140 |3000 |3026 |  28 | 30 |   0 |   0 |-2.139742e+06 |-2.137664e+06 |   0.10%| unknown
 12.4s|     1 |     0 |  1843 |     - |   171M |   0 | 140 |3000 |3027 |  29 | 31 |   0 |   0 |-2.139742e+06 |-2.137664e+06 |   0.10%| unknown
 12.4s|     1 |     0 |  1848 |     - |   171M |   0 | 140 |3000 |3026 |  30 | 32 |   0 |   0 |-2.139742e+06 |-2.137664e+06 |   0.10%| unknown
 13.9s|     1 |     2 |  1848 |     - |   171M |   0 | 140 |3000 |3026 |  30 | 32 |   0 |  20 |-2.139464e+06 |-2.137664e+06 |   0.08%| unknown
 26.2s|   100 |    27 |  9152 |  81.2 |   178M |  13 | 140 |3112 |3022 |  63 |  1 | 115 | 341 |-2.139187e+06 |-2.137664e+06 |   0.07%|  21.58%
 31.8s|   200 |    37 | 15172 |  70.6 |   181M |  15 | 140 |3199 |3025 | 108 |  0 | 209 | 469 |-2.138991e+06 |-2.137664e+06 |   0.06%|  27.44%
 37.4s|   300 |    55 | 20256 |  64.0 |   181M |  15 | 140 |3243 |3020 | 144 |  0 | 253 | 546 |-2.138914e+06 |-2.137664e+06 |   0.06%|  33.71%
 41.3s|   400 |    71 | 25868 |  62.0 |   181M |  16 | 140 |3276 |3024 | 192 |  0 | 286 | 595 |-2.138829e+06 |-2.137664e+06 |   0.05%|  36.91%
 time | node  | left  |LP iter|LP it/n|mem/heur|mdpt |vars |cons |rows |cuts |sepa|confs|strbr|  dualbound   | primalbound  |  gap   | compl. 
 44.6s|   500 |    89 | 32388 |  62.7 |   181M |  17 | 140 |3309 |3021 | 204 |  1 | 320 | 627 |-2.138717e+06 |-2.137664e+06 |   0.05%|  44.26%
 49.4s|   600 |   107 | 40113 |  65.1 |   182M |  18 | 140 |3350 |3020 | 265 |  0 | 362 | 670 |-2.138519e+06 |-2.137664e+06 |   0.04%|  51.74%
 52.9s|   700 |   113 | 47579 |  66.5 |   182M |  18 | 140 |3376 |3020 | 295 |  0 | 391 | 695 |-2.138445e+06 |-2.137664e+06 |   0.04%|  56.65%
 56.3s|   800 |   137 | 53526 |  65.6 |   183M |  18 | 140 |3414 |3020 | 321 |  1 | 437 | 725 |-2.138308e+06 |-2.137664e+06 |   0.03%|  61.36%
 60.4s|   900 |   145 | 59516 |  65.0 |   183M |  18 | 140 |3435 |3025 | 357 |  0 | 463 | 742 |-2.138232e+06 |-2.137664e+06 |   0.03%|  66.93%
 62.7s|  1000 |   143 | 64122 |  63.1 |   183M |  18 | 140 |3447 |3020 | 384 |  0 | 477 | 756 |-2.138169e+06 |-2.137664e+06 |   0.02%|  70.67%
 65.1s|  1100 |   119 | 67883 |  60.8 |   183M |  21 | 140 |3461 |3025 | 407 |  0 | 494 | 769 |-2.138130e+06 |-2.137664e+06 |   0.02%|  74.85%
 66.6s|  1200 |    81 | 71365 |  58.6 |   183M |  21 | 140 |3463 |3020 | 422 |  0 | 503 | 778 |-2.138087e+06 |-2.137664e+06 |   0.02%|  79.78%
 67.8s|  1300 |    17 | 74343 |  56.4 |   183M |  21 | 140 |3462 |3035 | 423 |  0 | 511 | 789 |-2.137925e+06 |-2.137664e+06 |   0.01%|  92.98%

SCIP Status        : problem is solved [optimal solution found]
Solving Time (sec) : 68.05
Solving Nodes      : 1321
Primal Bound       : -2.13766357717752e+06 (539 solutions)
Dual Bound         : -2.13766357717752e+06
Gap                : 0.00 %
Solve Status: optimal
Solve Time: 68.07 seconds
